NAME : CMT10X
TYPE : MVRPB
DIMENSION : 200
VEHICLES : 18
CAPACITY : 20000
DISTANCE : 200
EDGE_WEIGHT_TYPE : EXACT_2D
NODE_COORD_SECTION
1 35 35
2 41 49
3 35 17
4 55 45
5 55 20
6 15 30
7 25 30
8 20 50
9 10 43
10 55 60
11 30 60
12 20 65
13 50 35
14 30 25
15 15 10
16 30 5
17 10 20
18 5 30
19 20 40
20 15 60
21 45 65
22 45 20
23 45 10
24 55 5
25 65 35
26 65 20
27 45 30
28 35 40
29 41 37
30 64 42
31 40 60
32 31 52
33 35 69
34 53 52
35 65 55
36 63 65
37 2 60
38 20 20
39 5 5
40 60 12
41 40 25
42 42 7
43 24 12
44 23 3
45 11 14
46 6 38
47 2 48
48 8 56
49 13 52
50 6 68
51 47 47
52 49 58
53 27 43
54 37 31
55 57 29
56 63 23
57 53 12
58 32 12
59 36 26
60 21 24
61 17 34
62 12 24
63 24 58
64 27 69
65 15 77
66 62 77
67 49 73
68 67 5
69 56 39
70 37 47
71 37 56
72 57 68
73 47 16
74 44 17
75 46 13
76 49 11
77 49 42
78 53 43
79 61 52
80 57 48
81 56 37
82 55 54
83 15 47
84 14 37
85 11 31
86 16 22
87 4 18
88 28 18
89 26 52
90 26 35
91 31 67
92 15 19
93 22 22
94 18 24
95 26 27
96 25 24
97 22 27
98 25 21
99 19 21
100 20 26
101 18 18
102 37 52
103 49 49
104 52 64
105 20 26
106 40 30
107 21 47
108 17 63
109 31 62
110 52 33
111 51 21
112 42 41
113 31 32
114 5 25
115 12 42
116 36 16
117 52 41
118 27 23
119 17 33
120 13 13
121 57 58
122 62 42
123 42 57
124 16 57
125 8 52
126 7 38
127 27 68
128 30 48
129 43 67
130 58 48
131 58 27
132 37 69
133 38 46
134 46 10
135 61 33
136 62 63
137 63 69
138 32 22
139 45 35
140 59 15
141 5 6
142 10 17
143 21 10
144 5 64
145 30 15
146 39 10
147 32 39
148 25 32
149 25 55
150 48 28
151 56 37
152 22 22
153 36 26
154 21 45
155 45 35
156 55 20
157 33 34
158 50 50
159 55 45
160 26 59
161 40 66
162 55 65
163 35 51
164 62 35
165 62 57
166 62 24
167 21 36
168 33 44
169 9 56
170 62 48
171 66 14
172 44 13
173 26 13
174 11 28
175 7 43
176 17 64
177 41 46
178 55 34
179 35 16
180 52 26
181 43 26
182 31 76
183 22 53
184 26 29
185 50 40
186 55 50
187 54 10
188 60 15
189 47 66
190 30 60
191 30 50
192 12 17
193 15 14
194 16 19
195 21 48
196 50 30
197 51 42
198 50 15
199 48 21
200 12 38
PICKUP_AND_DELIVERY_SECTION
1 0 0 10000000 10 0 0
2 0 0 10000000 10 163 837
3 0 0 10000000 10 360 340
4 0 0 10000000 10 236 1064
5 0 0 10000000 10 1209 691
6 0 0 10000000 10 1300 1300
7 0 0 10000000 10 50 250
8 0 0 10000000 10 300 200
9 0 0 10000000 10 691 209
10 0 0 10000000 10 133 1467
11 0 0 10000000 10 800 800
12 0 0 10000000 10 831 369
13 0 0 10000000 10 570 1330
14 0 0 10000000 10 383 1917
15 0 0 10000000 10 667 1333
16 0 0 10000000 10 667 133
17 0 0 10000000 10 950 950
18 0 0 10000000 10 167 33
19 0 0 10000000 10 600 600
20 0 0 10000000 10 1275 425
21 0 0 10000000 10 277 623
22 0 0 10000000 10 611 489
23 0 0 10000000 10 1400 400
24 0 0 10000000 10 2636 264
25 0 0 10000000 10 138 162
26 0 0 10000000 10 415 185
27 0 0 10000000 10 567 1133
28 0 0 10000000 10 200 1400
29 0 0 10000000 10 156 1444
30 0 0 10000000 10 309 591
31 0 0 10000000 10 700 1400
32 0 0 10000000 10 1090 1610
33 0 0 10000000 10 1133 1167
34 0 0 10000000 10 21 1079
35 0 0 10000000 10 215 1185
36 0 0 10000000 10 25 775
37 0 0 10000000 10 483 17
38 0 0 10000000 10 0 800
39 0 0 10000000 10 0 1600
40 0 0 10000000 10 2480 620
41 0 0 10000000 10 338 563
42 0 0 10000000 10 417 83
43 0 0 10000000 10 250 250
44 0 0 10000000 10 609 91
45 0 0 10000000 10 386 1414
46 0 0 10000000 10 1347 253
47 0 0 10000000 10 96 4
48 0 0 10000000 10 2314 386
49 0 0 10000000 10 2700 900
50 0 0 10000000 10 2735 265
51 0 0 10000000 10 0 1300
52 0 0 10000000 10 155 845
53 0 0 10000000 10 335 565
54 0 0 10000000 10 227 1173
55 0 0 10000000 10 884 916
56 0 0 10000000 10 127 73
57 0 0 10000000 10 464 136
58 0 0 10000000 10 438 263
59 0 0 10000000 10 500 1300
60 0 0 10000000 10 350 2450
61 0 0 10000000 10 150 150
62 0 0 10000000 10 650 650
63 0 0 10000000 10 1114 786
64 0 0 10000000 10 609 391
65 0 0 10000000 10 725 175
66 0 0 10000000 10 390 1610
67 0 0 10000000 10 822 1678
68 0 0 10000000 10 2313 187
69 0 0 10000000 10 1093 2507
70 0 0 10000000 10 128 472
71 0 0 10000000 10 170 330
72 0 0 10000000 10 243 1257
73 0 0 10000000 10 1649 851
74 0 0 10000000 10 552 348
75 0 0 10000000 10 574 226
76 0 0 10000000 10 1396 404
77 0 0 10000000 10 186 1114
78 0 0 10000000 10 264 1136
79 0 0 10000000 10 44 256
80 0 0 10000000 10 363 1937
81 0 0 10000000 10 204 396
82 0 0 10000000 10 47 2553
83 0 0 10000000 10 1089 511
84 0 0 10000000 10 684 416
85 0 0 10000000 10 452 248
86 0 0 10000000 10 1118 2982
87 0 0 10000000 10 2722 778
88 0 0 10000000 10 929 1671
89 0 0 10000000 10 450 450
90 0 0 10000000 10 386 1114
91 0 0 10000000 10 161 139
92 0 0 10000000 10 21 79
93 0 0 10000000 10 0 200
94 0 0 10000000 10 550 1650
95 0 0 10000000 10 100 2600
96 0 0 10000000 10 80 1920
97 0 0 10000000 10 204 896
98 0 0 10000000 10 192 1008
99 0 0 10000000 10 95 905
100 0 0 10000000 10 208 692
101 0 0 10000000 10 0 1700
102 0 0 10000000 10 202 498
103 0 0 10000000 10 0 3000
104 0 0 10000000 10 300 1300
105 0 0 10000000 10 208 692
106 0 0 10000000 10 525 1575
107 0 0 10000000 10 830 670
108 0 0 10000000 10 1387 513
109 0 0 10000000 10 1150 1150
110 0 0 10000000 10 402 698
111 0 0 10000000 10 294 206
112 0 0 10000000 10 45 1855
113 0 0 10000000 10 91 2809
114 0 0 10000000 10 1840 460
115 0 0 10000000 10 1500 600
116 0 0 10000000 10 556 444
117 0 0 10000000 10 317 1183
118 0 0 10000000 10 44 256
119 0 0 10000000 10 1988 2112
120 0 0 10000000 10 0 900
121 0 0 10000000 10 48 2752
122 0 0 10000000 10 258 542
123 0 0 10000000 10 211 589
124 0 0 10000000 10 1151 449
125 0 0 10000000 10 846 154
126 0 0 10000000 10 2284 516
127 0 0 10000000 10 422 278
128 0 0 10000000 10 563 938
129 0 0 10000000 10 501 899
130 0 0 10000000 10 103 497
131 0 0 10000000 10 1016 884
132 0 0 10000000 10 510 590
133 0 0 10000000 10 209 991
134 0 0 10000000 10 1800 500
135 0 0 10000000 10 1193 1407
136 0 0 10000000 10 27 1673
137 0 0 10000000 10 52 548
138 0 0 10000000 10 281 619
139 0 0 10000000 10 333 1167
140 0 0 10000000 10 1044 356
141 0 0 10000000 10 117 583
142 0 0 10000000 10 1112 1588
143 0 0 10000000 10 681 619
144 0 0 10000000 10 1014 86
145 0 0 10000000 10 800 800
146 0 0 10000000 10 744 256
147 0 0 10000000 10 90 410
148 0 0 10000000 10 547 1953
149 0 0 10000000 10 927 773
150 0 0 10000000 10 750 1050
151 0 0 10000000 10 339 661
152 0 0 10000000 10 0 1800
153 0 0 10000000 10 722 1878
154 0 0 10000000 10 587 513
155 0 0 10000000 10 667 2333
156 0 0 10000000 10 1336 764
157 0 0 10000000 10 56 1844
158 0 0 10000000 10 0 1500
159 0 0 10000000 10 291 1309
160 0 0 10000000 10 1622 1278
161 0 0 10000000 10 1024 1576
162 0 0 10000000 10 569 3131
163 0 0 10000000 10 502 1098
164 0 0 10000000 10 523 677
165 0 0 10000000 10 250 2850
166 0 0 10000000 10 490 310
167 0 0 10000000 10 792 1108
168 0 0 10000000 10 500 1500
169 0 0 10000000 10 1091 209
170 0 0 10000000 10 339 1161
171 0 0 10000000 10 1733 467
172 0 0 10000000 10 1973 827
173 0 0 10000000 10 600 600
174 0 0 10000000 10 364 236
175 0 0 10000000 10 2260 440
176 0 0 10000000 10 1028 372
177 0 0 10000000 10 196 1604
178 0 0 10000000 10 649 1051
179 0 0 10000000 10 1574 1326
180 0 0 10000000 10 650 650
181 0 0 10000000 10 870 1330
182 0 0 10000000 10 1480 1020
183 0 0 10000000 10 1638 1162
184 0 0 10000000 10 279 2421
185 0 0 10000000 10 380 1520
186 0 0 10000000 10 91 909
187 0 0 10000000 10 978 222
188 0 0 10000000 10 1050 350
189 0 0 10000000 10 691 1709
190 0 0 10000000 10 800 800
191 0 0 10000000 10 1320 1980
192 0 0 10000000 10 441 1059
193 0 0 10000000 10 73 1027
194 0 0 10000000 10 284 1516
195 0 0 10000000 10 956 744
196 0 0 10000000 10 840 1260
197 0 0 10000000 10 476 2224
198 0 0 10000000 10 1330 570
199 0 0 10000000 10 1125 875
200 0 0 10000000 10 342 158
DEPOT_SECTION
1 
-1
EOF
